
Gurobi 9.1.2 (linux64, gurobi_cl) logging started Fri Jul 30 13:55:43 2021

Using license file /opt/gurobi/gurobi.lic
Set parameter TimeLimit to value 600
Set parameter Heuristics to value 0
Set parameter Cuts to value 2
Set parameter LogFile to value 912-Cuts2-Heuristics0-glass4-1.log
Set parameter Seed to value 1

Gurobi Optimizer version 9.1.2 build v9.1.2rc0 (linux64)
Copyright (c) 2021, Gurobi Optimization, LLC

Read MPS format model from file /nfs/models/mip/glass4.mps.bz2
Reading time = 0.00 seconds
glass4: 396 rows, 322 columns, 1815 nonzeros
Thread count: 4 physical cores, 8 logical processors, using up to 8 threads
Optimize a model with 396 rows, 322 columns and 1815 nonzeros
Model fingerprint: 0x0a9d9037
Variable types: 20 continuous, 302 integer (0 binary)
Coefficient statistics:
  Matrix range     [1e+00, 8e+06]
  Objective range  [1e+00, 1e+06]
  Bounds range     [1e+00, 8e+02]
  RHS range        [1e+00, 8e+06]
Presolve removed 6 rows and 6 columns
Presolve time: 0.00s
Presolved: 390 rows, 316 columns, 1803 nonzeros
Variable types: 19 continuous, 297 integer (297 binary)

Root relaxation: objective 8.000024e+08, 72 iterations, 0.00 seconds

    Nodes    |    Current Node    |     Objective Bounds      |     Work
 Expl Unexpl |  Obj  Depth IntInf | Incumbent    BestBd   Gap | It/Node Time

     0     0 8.0000e+08    0   72          - 8.0000e+08      -     -    0s
     0     0 8.0000e+08    0   72          - 8.0000e+08      -     -    0s
     0     0 8.0000e+08    0   76          - 8.0000e+08      -     -    0s
     0     0 8.0000e+08    0   76          - 8.0000e+08      -     -    0s
     0     2 8.0000e+08    0   76          - 8.0000e+08      -     -    0s
*  801  1185             179    2.700023e+09 8.0000e+08  70.4%   5.8    0s
* 1512  1332             154    2.600021e+09 8.0000e+08  69.2%   5.7    0s
* 2015  1607              92    2.600019e+09 8.0000e+08  69.2%   8.6    0s
* 2190  1636              96    2.600018e+09 8.0000e+08  69.2%   8.5    0s
* 2215  1567             108    2.391686e+09 8.0000e+08  66.6%   8.5    0s
* 2219  1508             105    2.391686e+09 8.0000e+08  66.6%   8.5    0s
* 2265  1696              94    2.360024e+09 8.0000e+08  66.1%   8.5    0s
* 2267  1635              95    2.266690e+09 8.0000e+08  64.7%   8.5    0s
* 2639  1577             118    2.200019e+09 8.0000e+08  63.6%   8.3    0s
* 2733  1493             120    2.180020e+09 8.0000e+08  63.3%   8.2    0s
* 3237  1840             113    2.166687e+09 8.0000e+08  63.1%   8.8    0s
* 3976  2081             123    2.166684e+09 8.0000e+08  63.1%   9.1    0s
* 4159  2264              84    2.150017e+09 8.0000e+08  62.8%   9.3    0s
* 4860  2690             125    2.000019e+09 8.0001e+08  60.0%   9.8    0s
* 4861  2687             127    2.000018e+09 8.0001e+08  60.0%   9.8    0s
* 4866  2683             125    2.000017e+09 8.0001e+08  60.0%   9.8    0s
* 6908  4147             137    1.933354e+09 8.0001e+08  58.6%  10.5    1s
* 6912  4117             136    1.900020e+09 8.0001e+08  57.9%  10.4    1s
* 6973  3999             121    1.880019e+09 8.0001e+08  57.4%  10.6    1s
* 8735  5189             111    1.833351e+09 8.0001e+08  56.4%  11.0    1s
* 9254  5411              37    1.833350e+09 8.0001e+08  56.4%  11.5    1s
* 9258  5411              38    1.833350e+09 8.0001e+08  56.4%  11.5    1s
*12500  7978              83    1.825017e+09 8.0001e+08  56.2%  12.1    1s
*12681  7474              81    1.750016e+09 8.0001e+08  54.3%  12.2    1s
*15928 10676              87    1.733350e+09 8.0001e+08  53.8%  12.7    2s
*17637 10895              81    1.733349e+09 8.0001e+08  53.8%  12.9    2s
*17681 10875              69    1.733348e+09 8.0001e+08  53.8%  12.9    2s
*18039 11262              69    1.733348e+09 8.0001e+08  53.8%  13.2    2s
*18099 11209              83    1.722237e+09 8.0001e+08  53.5%  13.2    2s
*18271 11209              70    1.720016e+09 8.0001e+08  53.5%  13.3    2s
*18276 11209              71    1.720015e+09 8.0001e+08  53.5%  13.3    2s
*18279 11209              71    1.720015e+09 8.0001e+08  53.5%  13.3    2s
*18371 11124              95    1.700016e+09 8.0001e+08  52.9%  13.3    2s
*18461 11098              64    1.700015e+09 8.0001e+08  52.9%  13.3    2s
*25375 15634              74    1.700015e+09 8.0001e+08  52.9%  14.2    4s
*25625 15875              70    1.700014e+09 8.0001e+08  52.9%  14.2    4s
*25875 14453              71    1.666682e+09 8.0001e+08  52.0%  14.3    4s
*28338 15697              67    1.650015e+09 8.0001e+08  51.5%  14.6    4s
 30360 17238 infeasible   43      1.6500e+09 8.0001e+08  51.5%  14.7    5s
*38258 21723              79    1.650015e+09 8.3104e+08  49.6%  15.4    6s
*38274 21709              79    1.650014e+09 8.3104e+08  49.6%  15.4    6s
*46186 25836              63    1.650014e+09 8.5352e+08  48.3%  16.0    8s
*51646 27763              79    1.600015e+09 8.7501e+08  45.3%  16.4    9s
*51652 27324              80    1.600013e+09 8.7501e+08  45.3%  16.4    9s
 54410 29087     cutoff   69      1.6000e+09 8.7861e+08  45.1%  16.7   10s
*54679 29007              65    1.600013e+09 8.7861e+08  45.1%  16.7   10s
*55038 29224              95    1.600013e+09 8.8001e+08  45.0%  16.8   10s
*55039 29214              95    1.600013e+09 8.8001e+08  45.0%  16.8   10s
*55132 27294              63    1.594459e+09 8.8001e+08  44.8%  16.9   10s
*60897 30042              69    1.566683e+09 9.0000e+08  42.6%  17.2   11s
 69973 35134 infeasible   52      1.5667e+09 9.0001e+08  42.6%  18.8   15s
*70891 34640              55    1.550015e+09 9.0001e+08  41.9%  19.0   15s
*77741 37875              74    1.550014e+09 9.0001e+08  41.9%  19.7   17s
*79303 36026              61    1.500014e+09 9.0001e+08  40.0%  19.9   18s
*80131 28924              56    1.462516e+09 9.0001e+08  38.5%  20.0   18s
*80132 28195              56    1.433349e+09 9.0001e+08  37.2%  20.0   18s
 82840 28762 9.0001e+08   46   72 1.4333e+09 9.0001e+08  37.2%  20.7   20s
*83035 28762              57    1.433349e+09 9.0001e+08  37.2%  20.8   20s
*88723 28806              69    1.400019e+09 9.0001e+08  35.7%  22.5   23s
*88736 24610              75    1.350024e+09 9.0001e+08  33.3%  22.5   23s
 91188 24085 infeasible   38      1.3500e+09 9.0001e+08  33.3%  23.5   25s
*91319 16572              54    1.200013e+09 9.0001e+08  25.0%  23.5   25s
 102567  7249 infeasible   69      1.2000e+09 1.1000e+09  8.33%  25.0   30s

Cutting planes:
  Gomory: 83
  Cover: 698
  Implied bound: 113
  Projected implied bound: 5
  Clique: 1
  MIR: 35
  Flow cover: 513
  Inf proof: 87
  RLT: 79
  Relax-and-lift: 125

Explored 107483 nodes (2674617 simplex iterations) in 31.00 seconds
Thread count was 8 (of 8 available processors)

Solution count 10: 1.20001e+09 1.35002e+09 1.40002e+09 ... 1.56668e+09

Optimal solution found (tolerance 1.00e-04)
Best objective 1.200012600000e+09, best bound 1.199997148428e+09, gap 0.0013%
